decision_x1=[0,7];
decision_x2=[0,7];
decision_x3=[0,7];
decision_x4=[0,7];
decision_x5=[0,7];
decision_x6=[0,7];
decision_x7=[0,7];
decision_x8=[0,7];
decision_x9=[0,7];
decision_x10=[0,7];
decision_x11=[0,7];
decision_x12=[0,7];
decision_x13=[0,7];
decision_x14=[0,7];
random_y1=[0,7];
random_y2=[0,7];
random_y3=[0,7];
random_y4=[0,7];
random_y5=[0,7];
random_y6=[0,7];
constraint_x2_x1=[
0,0,1.3|
0,1,5.5|
0,2,8.8|
0,3,0.34|
0,4,4.5|
0,5,6|
0,6,7.4|
0,7,2.9|
1,0,3.7|
1,1,1.8|
1,2,0.14|
1,3,1.7|
1,4,5.6|
1,5,9|
1,6,5.7|
1,7,0.57|
2,0,5.7|
2,1,6.7|
2,2,4.5|
2,3,3.1|
2,4,0.69|
2,5,8|
2,6,9.9|
2,7,6.8|
3,0,0.12|
3,1,8.7|
3,2,2.8|
3,3,2|
3,4,7.4|
3,5,4.1|
3,6,3.9|
3,7,9.2|
4,0,8.5|
4,1,7.5|
4,2,7.1|
4,3,0.71|
4,4,9.8|
4,5,8.5|
4,6,6.2|
4,7,1.7|
5,0,0.38|
5,1,3.2|
5,2,8.9|
5,3,6.1|
5,4,7.5|
5,5,6.6|
5,6,7.5|
5,7,6|
6,0,0.17|
6,1,7.3|
6,2,9.1|
6,3,1.4|
6,4,3.3|
6,5,6.1|
6,6,5.2|
6,7,5.3|
7,0,2.3|
7,1,1.3|
7,2,9.7|
7,3,4.2|
7,4,4.1|
7,5,7.8|
7,6,9.8|
7,7,4.2|
];
constraint_x3_x2=[
0,0,1.4|
0,1,9.2|
0,2,4|
0,3,9.4|
0,4,8.8|
0,5,9.8|
0,6,4.9|
0,7,6.8|
1,0,6.9|
1,1,5|
1,2,0.23|
1,3,0.22|
1,4,4.8|
1,5,1.9|
1,6,0.23|
1,7,8.3|
2,0,1.7|
2,1,9.8|
2,2,3.7|
2,3,6|
2,4,5.3|
2,5,2.2|
2,6,0.69|
2,7,10|
3,0,3|
3,1,3|
3,2,6.7|
3,3,1.6|
3,4,8.3|
3,5,3.1|
3,6,6.6|
3,7,5.1|
4,0,3.3|
4,1,7.2|
4,2,4.1|
4,3,0.68|
4,4,10|
4,5,5.1|
4,6,9.3|
4,7,7.3|
5,0,4.3|
5,1,6.7|
5,2,3.6|
5,3,0.95|
5,4,0.67|
5,5,7.2|
5,6,1.3|
5,7,8.7|
6,0,5.9|
6,1,4.2|
6,2,4.2|
6,3,3.3|
6,4,8.5|
6,5,7.8|
6,6,2.5|
6,7,0.29|
7,0,0.82|
7,1,6.8|
7,2,6.1|
7,3,9.9|
7,4,8.9|
7,5,7.7|
7,6,3.6|
7,7,3.5|
];
constraint_x4_x3=[
0,0,5.4|
0,1,0.64|
0,2,0.27|
0,3,6.4|
0,4,1.2|
0,5,2.3|
0,6,7.8|
0,7,0.54|
1,0,3|
1,1,0.79|
1,2,9.2|
1,3,0.24|
1,4,7.4|
1,5,6.2|
1,6,4.7|
1,7,1.4|
2,0,6.7|
2,1,6.9|
2,2,5|
2,3,7|
2,4,8.7|
2,5,4|
2,6,3.1|
2,7,8.2|
3,0,7.1|
3,1,5.4|
3,2,7.1|
3,3,4.7|
3,4,4.7|
3,5,4.7|
3,6,8.8|
3,7,9.9|
4,0,4.3|
4,1,1.8|
4,2,7.2|
4,3,6.3|
4,4,6.2|
4,5,9.8|
4,6,8.3|
4,7,1.7|
5,0,7.9|
5,1,4.6|
5,2,9.7|
5,3,6.6|
5,4,5.6|
5,5,2|
5,6,0.099|
5,7,7.8|
6,0,9.3|
6,1,0.69|
6,2,7.7|
6,3,6|
6,4,5.2|
6,5,5.8|
6,6,0.23|
6,7,6.3|
7,0,0.33|
7,1,4.1|
7,2,0.97|
7,3,5.3|
7,4,3.8|
7,5,3.7|
7,6,7.7|
7,7,5.1|
];
constraint_x5_x1=[
0,0,6.5|
0,1,8.9|
0,2,0.36|
0,3,8.5|
0,4,4.2|
0,5,4.7|
0,6,6.1|
0,7,1.2|
1,0,8.2|
1,1,8|
1,2,2.4|
1,3,9.1|
1,4,0.67|
1,5,1.5|
1,6,5|
1,7,9.6|
2,0,6.3|
2,1,8.2|
2,2,2.4|
2,3,8.9|
2,4,4.1|
2,5,2.2|
2,6,0.25|
2,7,8.1|
3,0,9.6|
3,1,7.7|
3,2,2.3|
3,3,8.1|
3,4,8.9|
3,5,9.6|
3,6,6.5|
3,7,8.7|
4,0,3.5|
4,1,8.1|
4,2,9.4|
4,3,4.2|
4,4,3.4|
4,5,0.54|
4,6,9.2|
4,7,7.5|
5,0,7.9|
5,1,7.7|
5,2,7.8|
5,3,9|
5,4,1.7|
5,5,8.9|
5,6,9.4|
5,7,5.5|
6,0,2.6|
6,1,5.4|
6,2,9.3|
6,3,2.6|
6,4,5.3|
6,5,3.1|
6,6,6|
6,7,0.66|
7,0,2.4|
7,1,0.38|
7,2,6|
7,3,8.4|
7,4,9.5|
7,5,6.8|
7,6,1.9|
7,7,6.6|
];
constraint_x6_x2=[
0,0,2.6|
0,1,7.7|
0,2,3.3|
0,3,5.5|
0,4,6.4|
0,5,1.3|
0,6,6.8|
0,7,1.9|
1,0,3.7|
1,1,0.54|
1,2,7.7|
1,3,0.73|
1,4,9|
1,5,1.5|
1,6,0.91|
1,7,5.7|
2,0,9.2|
2,1,7.7|
2,2,4.1|
2,3,8.1|
2,4,1.2|
2,5,1.6|
2,6,9.9|
2,7,3.1|
3,0,0.34|
3,1,1.7|
3,2,2.9|
3,3,1|
3,4,5.4|
3,5,6.2|
3,6,2.1|
3,7,8.3|
4,0,0.91|
4,1,6.5|
4,2,1.1|
4,3,4|
4,4,2.2|
4,5,5|
4,6,7.9|
4,7,6.4|
5,0,3.3|
5,1,1.1|
5,2,0.37|
5,3,3.2|
5,4,0.24|
5,5,8.1|
5,6,8.7|
5,7,3.9|
6,0,2.3|
6,1,1.2|
6,2,0.54|
6,3,5.8|
6,4,7.5|
6,5,1.8|
6,6,0.3|
6,7,3.3|
7,0,1.4|
7,1,4.2|
7,2,6|
7,3,3.1|
7,4,5.8|
7,5,7.7|
7,6,9.2|
7,7,4.8|
];
constraint_x6_x5=[
0,0,7.1|
0,1,5|
0,2,2.8|
0,3,7.5|
0,4,1.9|
0,5,6.2|
0,6,5.7|
0,7,3.9|
1,0,4.1|
1,1,4.2|
1,2,7.3|
1,3,7.7|
1,4,3.9|
1,5,7.6|
1,6,5|
1,7,2.7|
2,0,7.7|
2,1,7.4|
2,2,6|
2,3,0.56|
2,4,3.5|
2,5,0.36|
2,6,4.9|
2,7,4.8|
3,0,6.4|
3,1,6.4|
3,2,8.5|
3,3,6.4|
3,4,3.9|
3,5,7|
3,6,7|
3,7,0.014|
4,0,7.2|
4,1,9.3|
4,2,6.7|
4,3,6.6|
4,4,1.9|
4,5,2.8|
4,6,9.2|
4,7,7.8|
5,0,5.7|
5,1,0.18|
5,2,3.1|
5,3,3.6|
5,4,2.1|
5,5,6.5|
5,6,6.8|
5,7,5.8|
6,0,5.6|
6,1,3.3|
6,2,1.1|
6,3,2.2|
6,4,9.6|
6,5,6.2|
6,6,3.8|
6,7,5.9|
7,0,3.7|
7,1,0.69|
7,2,0.29|
7,3,5.5|
7,4,3.3|
7,5,2.4|
7,6,4|
7,7,0.22|
];
constraint_x7_x3=[
0,0,2.1|
0,1,6.6|
0,2,3.4|
0,3,7.9|
0,4,8.4|
0,5,3|
0,6,0.96|
0,7,9.5|
1,0,2.7|
1,1,2.4|
1,2,4.3|
1,3,7.6|
1,4,7.3|
1,5,2.9|
1,6,2|
1,7,1.9|
2,0,1.4|
2,1,2.9|
2,2,5.2|
2,3,2.7|
2,4,8.7|
2,5,8.6|
2,6,5.1|
2,7,2.1|
3,0,5|
3,1,5.9|
3,2,10|
3,3,6.4|
3,4,8.7|
3,5,9.9|
3,6,0.85|
3,7,9.1|
4,0,1.2|
4,1,5.1|
4,2,0.8|
4,3,2.2|
4,4,0.11|
4,5,9.8|
4,6,9.6|
4,7,6.3|
5,0,8.9|
5,1,7.7|
5,2,2.5|
5,3,7.6|
5,4,4.9|
5,5,7|
5,6,2.5|
5,7,5.5|
6,0,8.3|
6,1,5.7|
6,2,2.1|
6,3,2.4|
6,4,7.4|
6,5,4.5|
6,6,8.4|
6,7,7|
7,0,1.1|
7,1,3.8|
7,2,1.2|
7,3,6.3|
7,4,6.7|
7,5,2.9|
7,6,3.8|
7,7,9.5|
];
constraint_x7_x6=[
0,0,9.4|
0,1,1|
0,2,9.9|
0,3,1.2|
0,4,9.6|
0,5,7.4|
0,6,8.7|
0,7,0.0066|
1,0,3.4|
1,1,6.6|
1,2,3.8|
1,3,8|
1,4,2.7|
1,5,4.1|
1,6,3.2|
1,7,8.7|
2,0,9.2|
2,1,6.2|
2,2,7.9|
2,3,9.4|
2,4,3.5|
2,5,5.3|
2,6,8.8|
2,7,4.7|
3,0,9.5|
3,1,3.3|
3,2,6.2|
3,3,0.19|
3,4,2.3|
3,5,0.45|
3,6,5.7|
3,7,0.25|
4,0,8.5|
4,1,7.5|
4,2,3.9|
4,3,1|
4,4,2.9|
4,5,8.8|
4,6,3.4|
4,7,3.9|
5,0,9.9|
5,1,6.6|
5,2,5|
5,3,8.1|
5,4,8|
5,5,8.2|
5,6,4.3|
5,7,9.3|
6,0,8|
6,1,4.7|
6,2,0.028|
6,3,0.31|
6,4,1.5|
6,5,6.3|
6,6,7.9|
6,7,9.8|
7,0,5|
7,1,4.9|
7,2,1.1|
7,3,5|
7,4,4.8|
7,5,10|
7,6,9.2|
7,7,5.6|
];
constraint_x8_x4=[
0,0,3.3|
0,1,8.1|
0,2,7.2|
0,3,4.9|
0,4,9|
0,5,9|
0,6,4.3|
0,7,2.5|
1,0,1.7|
1,1,7.4|
1,2,6.2|
1,3,6.4|
1,4,5.3|
1,5,5.5|
1,6,3.9|
1,7,2.4|
2,0,4.9|
2,1,3.8|
2,2,1.2|
2,3,7.9|
2,4,1.9|
2,5,5.5|
2,6,6.2|
2,7,6|
3,0,5.4|
3,1,0.93|
3,2,5.4|
3,3,5.4|
3,4,3.3|
3,5,8.2|
3,6,5.9|
3,7,5|
4,0,6|
4,1,2.7|
4,2,5.3|
4,3,8.4|
4,4,0.065|
4,5,3.4|
4,6,5|
4,7,8|
5,0,5.3|
5,1,7.2|
5,2,6.1|
5,3,9.9|
5,4,0.071|
5,5,3|
5,6,0.074|
5,7,7.8|
6,0,6|
6,1,3.2|
6,2,7.5|
6,3,3.1|
6,4,5.5|
6,5,4.7|
6,6,3.2|
6,7,2.7|
7,0,2.6|
7,1,6.4|
7,2,1.1|
7,3,9.9|
7,4,4.3|
7,5,1|
7,6,2|
7,7,5.5|
];
constraint_x8_x7=[
0,0,5.3|
0,1,2.7|
0,2,3.1|
0,3,4.3|
0,4,2.1|
0,5,5.1|
0,6,8|
0,7,9|
1,0,8|
1,1,5|
1,2,4.7|
1,3,6.5|
1,4,7.4|
1,5,7.2|
1,6,3.8|
1,7,5.9|
2,0,7.2|
2,1,5.2|
2,2,5|
2,3,2.9|
2,4,2.1|
2,5,2|
2,6,1.1|
2,7,7.2|
3,0,9.8|
3,1,0.42|
3,2,3.7|
3,3,0.8|
3,4,4.5|
3,5,8.8|
3,6,3|
3,7,1.2|
4,0,5.6|
4,1,0.76|
4,2,4.1|
4,3,3.3|
4,4,4.3|
4,5,7.3|
4,6,4.9|
4,7,6.3|
5,0,7.3|
5,1,7.8|
5,2,1|
5,3,2.8|
5,4,9.6|
5,5,3.7|
5,6,8|
5,7,10|
6,0,5.8|
6,1,5.7|
6,2,7.8|
6,3,4.1|
6,4,7.4|
6,5,5.5|
6,6,2.7|
6,7,7.1|
7,0,4.7|
7,1,4.1|
7,2,5|
7,3,2.5|
7,4,0.63|
7,5,3.5|
7,6,2.7|
7,7,6.2|
];
constraint_x9_x5=[
0,0,7.8|
0,1,0.11|
0,2,2.5|
0,3,3|
0,4,2.6|
0,5,6.1|
0,6,4.5|
0,7,3.1|
1,0,7.6|
1,1,7.5|
1,2,1|
1,3,2.6|
1,4,4.8|
1,5,2.7|
1,6,6.3|
1,7,4.8|
2,0,4.2|
2,1,5.6|
2,2,5.5|
2,3,6.6|
2,4,4.2|
2,5,6.7|
2,6,1.1|
2,7,1.8|
3,0,5|
3,1,1.5|
3,2,3.4|
3,3,4.4|
3,4,7.8|
3,5,8.5|
3,6,4.6|
3,7,1.6|
4,0,3.6|
4,1,6.1|
4,2,5.7|
4,3,8.7|
4,4,0.1|
4,5,5.4|
4,6,6.2|
4,7,3.4|
5,0,6.9|
5,1,8.5|
5,2,6.8|
5,3,1.8|
5,4,4.2|
5,5,9.9|
5,6,6.7|
5,7,2.5|
6,0,0.54|
6,1,0.93|
6,2,6.7|
6,3,8.7|
6,4,9.8|
6,5,6.5|
6,6,3.9|
6,7,1.8|
7,0,6.7|
7,1,2.4|
7,2,1.1|
7,3,0.46|
7,4,0.99|
7,5,9.5|
7,6,7.2|
7,7,4.4|
];
constraint_x10_x6=[
0,0,8.8|
0,1,3.1|
0,2,8.7|
0,3,5.8|
0,4,1.2|
0,5,6.9|
0,6,2.8|
0,7,3.6|
1,0,6|
1,1,7.5|
1,2,0.22|
1,3,3.4|
1,4,9|
1,5,8.8|
1,6,0.86|
1,7,8.3|
2,0,3.7|
2,1,0.98|
2,2,2.7|
2,3,2.8|
2,4,1.7|
2,5,4.2|
2,6,2.6|
2,7,5.8|
3,0,4.6|
3,1,9.1|
3,2,4.5|
3,3,0.71|
3,4,2.2|
3,5,4.7|
3,6,7.3|
3,7,5.6|
4,0,0.26|
4,1,2.9|
4,2,9.4|
4,3,4.5|
4,4,6.7|
4,5,9.3|
4,6,1.3|
4,7,8.8|
5,0,9.7|
5,1,3.8|
5,2,5.3|
5,3,1.9|
5,4,4.4|
5,5,4.6|
5,6,0.46|
5,7,0.85|
6,0,0.72|
6,1,7.3|
6,2,7.8|
6,3,3.2|
6,4,3.8|
6,5,6.3|
6,6,7.8|
6,7,5.1|
7,0,1.5|
7,1,1.5|
7,2,3.1|
7,3,9.8|
7,4,5.6|
7,5,1.5|
7,6,3.6|
7,7,0.82|
];
constraint_x10_x9=[
0,0,8|
0,1,1.3|
0,2,2.5|
0,3,2.4|
0,4,5|
0,5,5.6|
0,6,2.4|
0,7,0.75|
1,0,9.9|
1,1,0.82|
1,2,7.9|
1,3,5.3|
1,4,6.6|
1,5,5.9|
1,6,2.7|
1,7,3.4|
2,0,3.6|
2,1,0.61|
2,2,4.1|
2,3,8.9|
2,4,8.4|
2,5,8.6|
2,6,2.5|
2,7,6.1|
3,0,2.5|
3,1,7.7|
3,2,8.4|
3,3,8.8|
3,4,6.3|
3,5,8.8|
3,6,0.5|
3,7,2.6|
4,0,8.2|
4,1,5.1|
4,2,6.4|
4,3,5.2|
4,4,1.3|
4,5,5.4|
4,6,4.8|
4,7,9.4|
5,0,8|
5,1,9.7|
5,2,1.3|
5,3,5.2|
5,4,7.6|
5,5,2.4|
5,6,5.3|
5,7,9.8|
6,0,0.32|
6,1,8.5|
6,2,7.3|
6,3,1.3|
6,4,8.4|
6,5,4.6|
6,6,9.2|
6,7,1.7|
7,0,7.5|
7,1,3.3|
7,2,5|
7,3,6.3|
7,4,2.4|
7,5,7.6|
7,6,4.1|
7,7,6.5|
];
constraint_x11_x7=[
0,0,8|
0,1,4.5|
0,2,4.4|
0,3,6.8|
0,4,1.5|
0,5,2.5|
0,6,4.4|
0,7,2.3|
1,0,6.8|
1,1,5.4|
1,2,5.1|
1,3,6.4|
1,4,3.5|
1,5,5.9|
1,6,3.1|
1,7,1.3|
2,0,3.3|
2,1,6.7|
2,2,3.8|
2,3,6|
2,4,4.2|
2,5,0.27|
2,6,8.7|
2,7,9.8|
3,0,6.6|
3,1,9.9|
3,2,7|
3,3,8.4|
3,4,9.6|
3,5,5|
3,6,2|
3,7,6.1|
4,0,8.8|
4,1,4.9|
4,2,8.8|
4,3,1.5|
4,4,4.9|
4,5,6.4|
4,6,4.6|
4,7,2.8|
5,0,0.38|
5,1,5.8|
5,2,1.8|
5,3,6.6|
5,4,1.3|
5,5,1.4|
5,6,8.3|
5,7,8.5|
6,0,2.2|
6,1,9.8|
6,2,4.8|
6,3,6.9|
6,4,0.58|
6,5,5.8|
6,6,5.8|
6,7,3.3|
7,0,1.1|
7,1,6.3|
7,2,9|
7,3,4.7|
7,4,9.2|
7,5,1.7|
7,6,8.7|
7,7,0.71|
];
constraint_x11_x10=[
0,0,3.8|
0,1,8|
0,2,4.6|
0,3,7.4|
0,4,1.7|
0,5,5.8|
0,6,8.2|
0,7,7.3|
1,0,3.9|
1,1,6.4|
1,2,5.2|
1,3,0.46|
1,4,0.22|
1,5,4.9|
1,6,9.4|
1,7,8.6|
2,0,2.6|
2,1,5|
2,2,6.4|
2,3,7.9|
2,4,9.7|
2,5,3.4|
2,6,8.2|
2,7,7.9|
3,0,4.8|
3,1,8.8|
3,2,6.2|
3,3,6.1|
3,4,5.5|
3,5,7.5|
3,6,7.2|
3,7,8.9|
4,0,0.24|
4,1,2.8|
4,2,6.1|
4,3,6.7|
4,4,3.1|
4,5,5.1|
4,6,5.3|
4,7,5.7|
5,0,6.5|
5,1,8.5|
5,2,9.4|
5,3,1.8|
5,4,9|
5,5,9.8|
5,6,0.06|
5,7,9|
6,0,9.6|
6,1,4.8|
6,2,9.5|
6,3,7.1|
6,4,8.2|
6,5,2.6|
6,6,0.98|
6,7,3.9|
7,0,5.8|
7,1,3.8|
7,2,4.4|
7,3,8|
7,4,1.4|
7,5,5.6|
7,6,6.5|
7,7,2.4|
];
constraint_x12_x8=[
0,0,4.3|
0,1,0.63|
0,2,1.2|
0,3,7|
0,4,5.1|
0,5,3.3|
0,6,3.5|
0,7,4.4|
1,0,2.5|
1,1,6.5|
1,2,8|
1,3,7.6|
1,4,7.3|
1,5,1|
1,6,8.7|
1,7,7.6|
2,0,8.2|
2,1,4|
2,2,5.1|
2,3,1.8|
2,4,7.1|
2,5,5.9|
2,6,0.83|
2,7,9.4|
3,0,6.6|
3,1,4.9|
3,2,2.6|
3,3,7.5|
3,4,6.3|
3,5,1.6|
3,6,4.4|
3,7,6.1|
4,0,1.2|
4,1,1.9|
4,2,1.3|
4,3,0.46|
4,4,2.8|
4,5,8|
4,6,9.3|
4,7,8.4|
5,0,3.7|
5,1,5.2|
5,2,0.79|
5,3,6.2|
5,4,3.8|
5,5,5.4|
5,6,8.1|
5,7,4.2|
6,0,6.2|
6,1,0.39|
6,2,5.8|
6,3,0.036|
6,4,2|
6,5,10|
6,6,2.3|
6,7,7.1|
7,0,5.3|
7,1,8.4|
7,2,2.7|
7,3,10|
7,4,4.6|
7,5,2.8|
7,6,0.36|
7,7,4.4|
];
constraint_x12_x11=[
0,0,5.1|
0,1,4.8|
0,2,5.1|
0,3,9.2|
0,4,0.99|
0,5,2.9|
0,6,5.6|
0,7,2.2|
1,0,0.58|
1,1,9.7|
1,2,9.6|
1,3,0.72|
1,4,6.6|
1,5,5.3|
1,6,4.3|
1,7,1.9|
2,0,7.5|
2,1,1|
2,2,2.7|
2,3,6.8|
2,4,7|
2,5,3.9|
2,6,8.9|
2,7,2.9|
3,0,6.2|
3,1,5|
3,2,8.8|
3,3,4|
3,4,0.031|
3,5,6|
3,6,4.7|
3,7,5.8|
4,0,8.6|
4,1,6|
4,2,6|
4,3,7.2|
4,4,6.1|
4,5,3.9|
4,6,8.9|
4,7,7.1|
5,0,3.2|
5,1,6.6|
5,2,4.2|
5,3,3.7|
5,4,0.91|
5,5,8|
5,6,7.1|
5,7,2.6|
6,0,9.7|
6,1,5.9|
6,2,8.4|
6,3,1.7|
6,4,6.4|
6,5,0.47|
6,6,9.2|
6,7,1.4|
7,0,1|
7,1,3.4|
7,2,3.7|
7,3,0.58|
7,4,3.9|
7,5,0.24|
7,6,7.1|
7,7,6.3|
];
constraint_x13_x9=[
0,0,6.2|
0,1,2.1|
0,2,9.9|
0,3,9.9|
0,4,6.1|
0,5,4.5|
0,6,7.5|
0,7,2.7|
1,0,1.8|
1,1,5.6|
1,2,1.1|
1,3,5|
1,4,8|
1,5,3.7|
1,6,1.7|
1,7,9.8|
2,0,2.5|
2,1,9.7|
2,2,8|
2,3,1.1|
2,4,9|
2,5,2.1|
2,6,9.4|
2,7,5.1|
3,0,8.8|
3,1,0.084|
3,2,8.7|
3,3,0.3|
3,4,9|
3,5,8.7|
3,6,4.1|
3,7,1.3|
4,0,4.2|
4,1,4|
4,2,6.5|
4,3,7.6|
4,4,7.5|
4,5,3.8|
4,6,7.5|
4,7,4.9|
5,0,3.9|
5,1,4.2|
5,2,1.8|
5,3,6.9|
5,4,3.9|
5,5,1.4|
5,6,2.4|
5,7,3|
6,0,4.8|
6,1,7.8|
6,2,2.3|
6,3,9.1|
6,4,0.25|
6,5,4.4|
6,6,1.3|
6,7,0.41|
7,0,5.8|
7,1,4.1|
7,2,0.51|
7,3,8.6|
7,4,5.9|
7,5,4.1|
7,6,8.1|
7,7,4.4|
];
constraint_x14_x10=[
0,0,0.65|
0,1,1.7|
0,2,0.93|
0,3,9.5|
0,4,4.1|
0,5,0.62|
0,6,1.7|
0,7,2.2|
1,0,1.7|
1,1,6.4|
1,2,5.1|
1,3,6.3|
1,4,7.8|
1,5,4.9|
1,6,2.9|
1,7,8.7|
2,0,8.2|
2,1,3.3|
2,2,7.6|
2,3,6.8|
2,4,6.5|
2,5,9.4|
2,6,3.3|
2,7,1.8|
3,0,3.9|
3,1,3.1|
3,2,1.2|
3,3,6.3|
3,4,4.5|
3,5,5.6|
3,6,6|
3,7,2.5|
4,0,6.7|
4,1,8.8|
4,2,0.64|
4,3,9.2|
4,4,0.51|
4,5,8.9|
4,6,2.9|
4,7,0.2|
5,0,5.8|
5,1,4.1|
5,2,7.7|
5,3,7.9|
5,4,3.2|
5,5,7.8|
5,6,8.5|
5,7,5.8|
6,0,8.6|
6,1,7.8|
6,2,2.5|
6,3,3.5|
6,4,4.8|
6,5,0.033|
6,6,7.2|
6,7,5.2|
7,0,7|
7,1,8.6|
7,2,3.5|
7,3,3.7|
7,4,0.72|
7,5,8.7|
7,6,5|
7,7,0.21|
];
constraint_x1_y1=[
0,0,7.3|
0,1,8.2|
0,2,9.9|
0,3,4.1|
0,4,6.9|
0,5,5.6|
0,6,3|
0,7,8.7|
1,0,7.3|
1,1,1.1|
1,2,9.3|
1,3,1.6|
1,4,8.9|
1,5,1.8|
1,6,9.9|
1,7,7.9|
2,0,1.2|
2,1,0.8|
2,2,2.9|
2,3,7.9|
2,4,9.7|
2,5,7.7|
2,6,4.9|
2,7,8|
3,0,0.76|
3,1,2.8|
3,2,4.2|
3,3,9.1|
3,4,8|
3,5,7.4|
3,6,7.9|
3,7,5.6|
4,0,2.1|
4,1,9|
4,2,8.5|
4,3,0.9|
4,4,6|
4,5,0.17|
4,6,4.5|
4,7,5.6|
5,0,1.7|
5,1,8|
5,2,6|
5,3,8.3|
5,4,2.7|
5,5,3.2|
5,6,0.43|
5,7,4.6|
6,0,6|
6,1,3.5|
6,2,1.5|
6,3,7.8|
6,4,5.8|
6,5,8|
6,6,2.5|
6,7,5.9|
7,0,7.4|
7,1,3.9|
7,2,8|
7,3,7.2|
7,4,7.9|
7,5,3.4|
7,6,8.3|
7,7,5.8|
];
constraint_x2_y2=[
0,0,10|
0,1,6.6|
0,2,4.9|
0,3,5.9|
0,4,6.8|
0,5,7.8|
0,6,2.8|
0,7,2.4|
1,0,1.1|
1,1,4.8|
1,2,3.8|
1,3,3.7|
1,4,3.6|
1,5,3.8|
1,6,1.5|
1,7,4.2|
2,0,5.9|
2,1,3.8|
2,2,8.8|
2,3,5.2|
2,4,5.4|
2,5,9.2|
2,6,6.4|
2,7,0.54|
3,0,0.8|
3,1,5.1|
3,2,8.9|
3,3,7.7|
3,4,8.5|
3,5,3.9|
3,6,0.78|
3,7,5.5|
4,0,2.2|
4,1,8.7|
4,2,6.4|
4,3,1.9|
4,4,8.6|
4,5,1.5|
4,6,1.2|
4,7,0.62|
5,0,4.6|
5,1,9.5|
5,2,3.9|
5,3,3.6|
5,4,2.7|
5,5,3|
5,6,3.3|
5,7,0.0077|
6,0,8.9|
6,1,7|
6,2,3.9|
6,3,3.4|
6,4,3.4|
6,5,9.9|
6,6,3.3|
6,7,2.2|
7,0,5.2|
7,1,5|
7,2,0.98|
7,3,0.96|
7,4,4.7|
7,5,8.8|
7,6,5.1|
7,7,8.8|
];
constraint_x3_y3=[
0,0,2.6|
0,1,4.7|
0,2,0.11|
0,3,9.5|
0,4,7.4|
0,5,4|
0,6,4.4|
0,7,8.7|
1,0,0.058|
1,1,9.8|
1,2,6.4|
1,3,9.4|
1,4,6.3|
1,5,7.5|
1,6,8.9|
1,7,4|
2,0,3.4|
2,1,9.7|
2,2,7.3|
2,3,7.7|
2,4,7.7|
2,5,0.97|
2,6,7.9|
2,7,1.2|
3,0,6.4|
3,1,7.4|
3,2,0.67|
3,3,3.5|
3,4,9.9|
3,5,4.9|
3,6,5.9|
3,7,4.8|
4,0,2.6|
4,1,0.92|
4,2,0.87|
4,3,6.1|
4,4,9.2|
4,5,3.8|
4,6,0.064|
4,7,5.5|
5,0,7.1|
5,1,2.3|
5,2,0.13|
5,3,3.3|
5,4,1.7|
5,5,2.7|
5,6,5.3|
5,7,8.6|
6,0,5.3|
6,1,7|
6,2,1|
6,3,2.8|
6,4,1.1|
6,5,0.33|
6,6,9.2|
6,7,2.6|
7,0,7.5|
7,1,2.7|
7,2,6|
7,3,9.8|
7,4,9.4|
7,5,3.6|
7,6,7.5|
7,7,1.3|
];
constraint_x4_y4=[
0,0,0.66|
0,1,3.9|
0,2,9.8|
0,3,4.7|
0,4,3.6|
0,5,9.2|
0,6,7.8|
0,7,4|
1,0,7.7|
1,1,4|
1,2,5.3|
1,3,6.8|
1,4,2.8|
1,5,3.9|
1,6,9.6|
1,7,7.6|
2,0,4.5|
2,1,1.6|
2,2,9.6|
2,3,3.7|
2,4,1.5|
2,5,2.9|
2,6,2.2|
2,7,3.4|
3,0,4.7|
3,1,9.7|
3,2,0.95|
3,3,2.9|
3,4,1.9|
3,5,7.6|
3,6,3.3|
3,7,5.4|
4,0,4.3|
4,1,1.9|
4,2,1.9|
4,3,9.1|
4,4,0.51|
4,5,0.5|
4,6,4.5|
4,7,7.4|
5,0,7|
5,1,5.5|
5,2,4.4|
5,3,8.3|
5,4,5.8|
5,5,1.1|
5,6,8.9|
5,7,1.1|
6,0,8.4|
6,1,2.4|
6,2,4.6|
6,3,4.4|
6,4,7|
6,5,4.5|
6,6,7.7|
6,7,1.2|
7,0,6.1|
7,1,4.3|
7,2,5|
7,3,3.1|
7,4,9.6|
7,5,6.5|
7,6,2|
7,7,1.1|
];
constraint_x5_y5=[
0,0,4.1|
0,1,6.4|
0,2,0.56|
0,3,2.8|
0,4,2|
0,5,7.1|
0,6,9.8|
0,7,2.3|
1,0,8.6|
1,1,4.5|
1,2,5|
1,3,7.1|
1,4,2|
1,5,2.5|
1,6,7.9|
1,7,0.53|
2,0,1.6|
2,1,8.8|
2,2,4.3|
2,3,1.4|
2,4,7.7|
2,5,2.6|
2,6,3.3|
2,7,2.3|
3,0,4.6|
3,1,2|
3,2,8.9|
3,3,6.7|
3,4,9.7|
3,5,8.3|
3,6,0.72|
3,7,1.5|
4,0,3|
4,1,1.9|
4,2,4.9|
4,3,9.5|
4,4,0.14|
4,5,4.4|
4,6,8.1|
4,7,0.69|
5,0,6|
5,1,8.8|
5,2,3.7|
5,3,5.7|
5,4,5|
5,5,2.8|
5,6,1.4|
5,7,7.2|
6,0,7.5|
6,1,7.1|
6,2,4.3|
6,3,6.7|
6,4,4.7|
6,5,0.49|
6,6,4.8|
6,7,9.5|
7,0,8.6|
7,1,6.4|
7,2,1.4|
7,3,7.3|
7,4,6.2|
7,5,0.34|
7,6,5.7|
7,7,8.2|
];
constraint_x6_y6=[
0,0,3.8|
0,1,9.8|
0,2,8.1|
0,3,5.8|
0,4,7.6|
0,5,8.1|
0,6,9.1|
0,7,3.8|
1,0,8.8|
1,1,2.2|
1,2,7.8|
1,3,9.9|
1,4,8.4|
1,5,6.5|
1,6,8|
1,7,4.8|
2,0,1.1|
2,1,8.7|
2,2,4.2|
2,3,5.7|
2,4,1.1|
2,5,4.5|
2,6,4.1|
2,7,5|
3,0,3|
3,1,2.1|
3,2,3.9|
3,3,6.4|
3,4,9.6|
3,5,3.9|
3,6,1.7|
3,7,7.5|
4,0,3.3|
4,1,7.9|
4,2,7.8|
4,3,2.8|
4,4,1.7|
4,5,4|
4,6,1|
4,7,4.2|
5,0,1.2|
5,1,6.1|
5,2,4.5|
5,3,2.4|
5,4,7.9|
5,5,1.3|
5,6,0.75|
5,7,2.9|
6,0,9.6|
6,1,8.2|
6,2,7.9|
6,3,4.1|
6,4,4.3|
6,5,2.2|
6,6,8.9|
6,7,6.5|
7,0,8.5|
7,1,1.3|
7,2,6.9|
7,3,5.3|
7,4,9.6|
7,5,6.1|
7,6,9.3|
7,7,6.8|
];
initial_distribution_y1=[0.08,0.064,0.18,0.054,0.17,0.17,0.18,0.1];
initial_distribution_y2=[0.075,0.088,0.18,0.027,0.17,0.1,0.18,0.18];
initial_distribution_y3=[0.15,0.23,0.034,0.037,0.19,0.23,0.078,0.05];
initial_distribution_y4=[0.029,0.18,0.12,0.15,0.04,0.19,0.16,0.13];
initial_distribution_y5=[0.16,0.023,0.21,0.21,0.084,0.09,0.15,0.076];
initial_distribution_y6=[0.079,0.12,0.19,0.22,0.0027,0.2,0.039,0.14];
transition_y1=[
0.1,0.028,0.22,0.15,0.15,0.035,0.17,0.15|
0.053,0.11,0.097,0.17,0.2,0.21,0.04,0.12|
0.12,0.017,0.22,0.23,0.079,0.16,0.16,0.026|
0.069,0.13,0.22,0.18,0.11,0.021,0.2,0.064|
0.3,0.1,0.093,0.064,0.075,0.048,0.19,0.13|
0.054,0.032,0.15,0.19,0.12,0.16,0.19,0.096|
0.22,0.16,0.18,0.19,0.15,0.036,0.058,0.01|
0.0056,0.16,0.075,0.2,0.17,0.11,0.22,0.065|
];
transition_y2=[
0.084,0.08,0.1,0.21,0.039,0.18,0.12,0.18|
0.087,0.096,0.16,0.14,0.13,0.17,0.069,0.16|
0.14,0.13,0.03,0.15,0.036,0.22,0.073,0.22|
0.023,0.15,0.036,0.2,0.11,0.24,0.16,0.091|
0.16,0.025,0.28,0.28,0.11,0.11,0.0064,0.031|
0.16,0.085,0.084,0.22,0.078,0.17,0.12,0.082|
0.11,0.043,0.03,0.11,0.25,0.052,0.35,0.058|
0.26,0.18,0.18,0.013,0.19,0.095,0.061,0.011|
];
transition_y3=[
0.16,0.13,0.15,0.056,0.084,0.15,0.11,0.16|
0.074,0.26,0.12,0.17,0.076,0.071,0.11,0.12|
0.18,0.15,0.01,0.024,0.17,0.014,0.3,0.16|
0.053,0.068,0.045,0.12,0.094,0.24,0.28,0.093|
0.16,0.12,0.11,0.14,0.17,0.097,0.099,0.098|
0.17,0.21,0.16,0.2,0.14,0.079,0.024,0.016|
0.17,0.19,0.14,0.24,0.1,0.029,0.062,0.056|
0.17,0.06,0.15,0.24,0.33,0.013,0.015,0.019|
];
transition_y4=[
0.069,0.035,0.25,0.11,0.18,0.014,0.1,0.24|
0.058,0.025,0.12,0.12,0.076,0.16,0.23,0.22|
0.31,0.19,0.053,0.038,0.092,0.21,0.0051,0.1|
0.15,0.068,0.15,0.15,0.086,0.14,0.14,0.12|
0.11,0.23,0.14,0.012,0.14,0.19,0.057,0.12|
0.099,0.13,0.12,0.14,0.12,0.16,0.054,0.17|
0.14,0.2,0.11,0.19,0.061,0.2,0.094,0.006|
0.21,0.26,0.082,0.017,0.13,0.21,0.028,0.052|
];
transition_y5=[
0.11,0.076,0.089,0.11,0.21,0.18,0.15,0.08|
0.21,0.21,0.078,0.024,0.099,0.12,0.17,0.083|
0.23,0.014,0.037,0.13,0.034,0.22,0.091,0.24|
0.1,0.18,0.11,0.066,0.095,0.08,0.2,0.17|
0.12,0.039,0.18,0.18,0.15,0.13,0.18,0.021|
0.14,0.24,0.19,0.053,0.087,0.19,0.079,0.021|
0.17,0.012,0.14,0.21,0.2,0.12,0.13,0.02|
0.14,0.072,0.092,0.18,0.19,0.14,0.16,0.021|
];
transition_y6=[
0.094,0.074,0.19,0.16,0.15,0.15,0.13,0.043|
0.061,0.26,0.2,0.088,0.061,0.2,0.03,0.1|
0.017,0.11,0.027,0.015,0.33,0.19,0.29,0.0088|
0.19,0.1,0.13,0.14,0.19,0.072,0.15,0.03|
0.19,0.12,0.11,0.091,0.018,0.23,0.083,0.16|
0.2,0.063,0.04,0.19,0.095,0.18,0.19,0.048|
0.14,0.14,0.071,0.076,0.18,0.18,0.031,0.19|
0.04,0.14,0.038,0.2,0.21,0.0032,0.28,0.094|
];
